
******************************************************************************
This program contains Ipopt, a library for large-scale nonlinear optimization.
 Ipopt is released as open source code under the Eclipse Public License (EPL).
         For more information visit http://projects.coin-or.org/Ipopt
******************************************************************************

This is Ipopt version 3.12.6, running with linear solver ma57.

Number of nonzeros in equality constraint Jacobian...:        0
Number of nonzeros in inequality constraint Jacobian.:     3422
Number of nonzeros in Lagrangian Hessian.............:     2545

Total number of variables............................:     2500
                     variables with only lower bounds:     2500
                variables with lower and upper bounds:        0
                     variables with only upper bounds:        0
Total number of equality constraints.................:        0
Total number of inequality constraints...............:      700
        inequality constraints with only lower bounds:      700
   inequality constraints with lower and upper bounds:        0
        inequality constraints with only upper bounds:        0

iter    objective    inf_pr   inf_du lg(mu)  ||d||  lg(rg) alpha_du alpha_pr  ls
   0 -6.6700413e+02 0.00e+00 2.91e+01  -1.0 0.00e+00    -  0.00e+00 0.00e+00   0
   1 -4.0650586e+03 0.00e+00 1.83e+01  -1.0 1.37e+00    -  5.32e-01 3.62e-01f  1
   2 -4.4533099e+03 0.00e+00 5.47e+00  -1.0 5.68e-01    -  8.11e-01 1.92e-01f  1
   3 -4.9562200e+03 0.00e+00 9.41e-01  -1.0 2.50e+00    -  9.07e-01 8.28e-01f  1
   4 -5.0307833e+03 0.00e+00 2.29e-03  -1.7 3.28e-01    -  9.93e-01 1.00e+00f  1
   5 -5.0495668e+03 0.00e+00 1.14e-02  -2.5 2.71e-01    -  9.00e-01 1.00e+00f  1
   6 -5.0523821e+03 0.00e+00 2.57e-03  -3.8 2.31e-01    -  9.34e-01 1.00e+00f  1
   7 -5.0524522e+03 0.00e+00 1.50e-09  -3.8 1.03e-01    -  1.00e+00 1.00e+00f  1
   8 -5.0525891e+03 0.00e+00 1.48e-04  -5.7 5.09e-02    -  9.75e-01 1.00e+00f  1
   9 -5.0525903e+03 0.00e+00 1.85e-11  -5.7 2.18e-02    -  1.00e+00 1.00e+00f  1
iter    objective    inf_pr   inf_du lg(mu)  ||d||  lg(rg) alpha_du alpha_pr  ls
  10 -5.0525904e+03 0.00e+00 1.85e-11  -5.7 8.41e-03    -  1.00e+00 1.00e+00f  1
  11 -5.0525920e+03 0.00e+00 5.23e-07  -8.6 4.31e-03    -  9.99e-01 1.00e+00f  1
  12 -5.0525920e+03 0.00e+00 2.89e-14  -8.6 1.82e-03    -  1.00e+00 1.00e+00f  1
  13 -5.0525920e+03 0.00e+00 2.89e-14  -8.6 5.04e-04    -  1.00e+00 1.00e+00h  1
  14 -5.0525920e+03 0.00e+00 2.89e-14  -8.6 4.54e-05    -  1.00e+00 1.00e+00h  1

Number of Iterations....: 14

                                   (scaled)                 (unscaled)
Objective...............:  -5.0525919912481158e+03   -5.0525919912481158e+03
Dual infeasibility......:   2.8915373397884033e-14    2.8915373397884033e-14
Constraint violation....:   0.0000000000000000e+00    0.0000000000000000e+00
Complementarity.........:   2.8550383860150361e-09    2.8550383860150361e-09
Overall NLP error.......:   2.8550383860150361e-09    2.8550383860150361e-09


Number of objective function evaluations             = 15
Number of objective gradient evaluations             = 15
Number of equality constraint evaluations            = 0
Number of inequality constraint evaluations          = 15
Number of equality constraint Jacobian evaluations   = 0
Number of inequality constraint Jacobian evaluations = 15
Number of Lagrangian Hessian evaluations             = 14
Total CPU secs in IPOPT (w/o function evaluations)   =      0.040
Total CPU secs in NLP function evaluations           =      0.007

EXIT: Optimal Solution Found.

************************ CUTEst statistics ************************


 Package used            :  IPOPT
 Problem                 :  MOSARQP2  
 # variables             =            2500
 # constraints           =             700
 # objective functions   =        0.3100000E+02
 # objective gradients   =        0.1600000E+02
 # objective Hessians    =        0.1500000E+02
 # Hessian-vector prdct  =        0.0000000E+00
 # constraints functions =        0.3200000E+02
 # constraints gradients =        0.1700000E+02
 # constraints Hessians  =        0.1500000E+02
 Exit code               =               0
 Final f                 =  -0.5052592E+04
 Set up time             =            0.04 seconds
 Solve time              =            0.17 seconds


******************************************************************

System Time =       0.0410000011 s.
